(set-info :Origin "This instance was generated by: BanditFuzz-- an RL fuzzer for SMT solvers" )
(set-info :Author "Joe Scott, Fed Mora, Vijay Ganesh" )
(set-info :Contact "Joe Scott, joseph.scott@uwaterloo.ca")
(set-logic QF_BV)
(declare-const bool_0 Bool)
(declare-const bool_1 Bool)
(declare-const bool_2 Bool)
(declare-const bool_3 Bool)
(declare-const bool_4 Bool)
(declare-const bv_0 (_ BitVec 32))
(declare-const bv_1 (_ BitVec 32))
(declare-const bv_2 (_ BitVec 32))
(declare-const bv_3 (_ BitVec 32))
(declare-const bv_4 (_ BitVec 32))
(assert (or (bvult (bvadd #x5685c1ff  #x3bfb6f86 ) (bvxnor bv_3 #x310cd712 )) (bvuge (bvxor #xc43c93de  #xdbc4e9cf ) (bvshl bv_0 bv_3))))
(assert (and (bvslt (bvmul bv_2 bv_2) (bvand bv_1 bv_4)) (bvsgt (bvsmod #x6e31f26e  bv_0) (bvxor #x07454457  #x53ee2b9a ))))
(assert (bvuge (bvudiv (bvudiv #x7d5d245a  bv_3) (bvmul bv_4 #x8991bf67 )) (bvlshr (bvadd bv_3 #xd0c66849 ) (bvsmod bv_2 bv_1))))
(assert (bvslt (bvxor (bvashr #x64a9cff0  bv_1) (bvsmod #x763ee2a1  bv_3)) (bvxnor (bvudiv #x8cbd961e  bv_3) (bvxor #xfa080cc2  #x13997c6c ))))
(assert (bvult (bvsdiv (bvsrem #x087be7ff  bv_4) (bvurem bv_2 bv_4)) (bvshl (bvsmod #x23ed15be  bv_0) (bvsmod #x874968b6  bv_0))))
(check-sat)
(exit)
